NAME : rnd20_20.tsp
TYPE : TSP
DIMENSION : 20
EDGE_WEIGHT_TYPE : EUC_2D
NODE_COORD_SECTION
1 317 716
2 31 56
3 223 860
4 129 206
5 580 734
6 588 751
7 33 405
8 694 493
9 487 480
10 653 752
11 117 927
12 2 512
13 836 840
14 587 517
15 959 501
16 721 141
17 140 698
18 805 744
19 655 146
20 825 359
